{
  "time": [
    31,
    31,
    32,
    33,
    33,
    33,
    34,
    34,
    35,
    37,
    37,
    38,
    38,
    39,
    39,
    40,
    40,
    40,
    40,
    41,
    41,
    41,
    42,
    42,
    43,
    43,
    43,
    44,
    44,
    44,
    45,
    45,
    45,
    45,
    46,
    46,
    47,
    47,
    47,
    47,
    48,
    48,
    49,
    49,
    51,
    52,
    52,
    53,
    54,
    55,
    58,
    58,
    58,
    60,
    69,
    70,
    72,
    81
  ],
  "cost": [
    1061,
    1055,
    1049,
    1010,
    1001,
    962,
    960,
    955,
    954,
    935,
    922,
    912,
    911,
    909,
    898,
    897,
    890,
    885,
    877,
    870,
    869,
    834,
    833,
    811,
    807,
    794,
    775,
    774,
    770,
    766,
    737,
    736,
    731,
    691,
    689,
    658,
    651,
    631,
    603,
    602,
    564,
    563,
    561,
    556,
    523,
    522,
    517,
    513,
    510,
    506,
    503,
    502,
    496,
    470,
    466,
    394,
    393,
    363
  ]
}